benchmarks/bfuzz0/220012721022231291381937325704282014238.smt2
(set-logic QF_FP)
(declare-const x0 (_ FloatingPoint 8 24))
(declare-const x1 (_ FloatingPoint 8 24))
(declare-const x2 (_ FloatingPoint 8 24))
(declare-const x3 (_ FloatingPoint 8 24))
(declare-const x4 (_ FloatingPoint 8 24))
(declare-const x5 (_ FloatingPoint 8 24))
(declare-const x6 (_ FloatingPoint 8 24))
(assert (fp.leq (fp.sub RNE x5 x3) (fp.div RNE x2 x0)))
(assert (fp.eq (fp.div RNE x5 x5) (fp.add RNE x2 x5)))
(check-sat)
