db/data/220012721022231291381937325704282014238.z3.out
sat
-------------------
10.492014249
